p wcnf 140 1500
6 -137 140 0
9 -136 139 0
7 -129 131 0
2 -129 140 0
8 -127 -132 0
6 -126 140 0
2 -125 132 0
4 -125 134 0
9 -124 138 0
2 -123 140 0
7 -122 -126 0
2 -122 128 0
1 -119 -129 0
2 -117 126 0
4 -116 -125 0
9 -116 126 0
3 -115 130 0
7 -114 -125 0
4 -114 125 0
2 -114 128 0
3 -113 -132 0
8 -113 -124 0
3 -113 -117 0
6 -112 -136 0
4 -112 -132 0
4 -112 -127 0
9 -112 -116 0
10 -112 135 0
3 -112 137 0
3 -111 -130 0
1 -110 -120 0
8 -110 -113 0
1 -110 133 0
8 -109 119 0
9 -109 126 0
9 -108 -128 0
4 -108 -125 0
1 -108 -110 0
2 -108 109 0
3 -108 124 0
3 -107 -136 0
8 -107 -113 0
4 -107 116 0
3 -107 134 0
9 -106 119 0
7 -106 128 0
2 -105 -137 0
2 -105 -110 0
4 -105 113 0
4 -104 -106 0
3 -104 108 0
6 -104 122 0
3 -103 -123 0
5 -103 115 0
1 -102 -111 0
6 -102 103 0
8 -102 122 0
9 -102 127 0
5 -101 -123 0
1 -101 131 0
2 -100 114 0
6 -100 128 0
8 -99 104 0
2 -99 107 0
3 -99 112 0
7 -99 117 0
10 -98 -132 0
6 -98 -113 0
7 -98 -110 0
2 -98 106 0
8 -98 125 0
9 -97 101 0
9 -97 102 0
2 -97 128 0
2 -97 138 0
8 -96 106 0
8 -96 114 0
2 -96 129 0
9 -96 137 0
2 -95 -96 0
6 -95 135 0
2 -95 138 0
6 -94 -111 0
7 -94 100 0
7 -94 103 0
7 -94 132 0
3 -94 136 0
5 -93 -139 0
6 -93 -124 0
7 -93 -94 0
5 -93 106 0
7 -92 -137 0
3 -92 106 0
3 -92 131 0
8 -92 133 0
5 -91 -135 0
9 -91 -130 0
8 -91 -115 0
1 -91 139 0
6 -90 -121 0
9 -90 -120 0
8 -90 94 0
5 -90 114 0
9 -90 130 0
9 -89 -127 0
5 -89 123 0
7 -89 136 0
7 -88 -102 0
7 -88 -97 0
6 -88 -90 0
8 -88 95 0
2 -88 96 0
7 -88 104 0
4 -88 135 0
9 -87 -128 0
3 -87 -120 0
10 -87 -101 0
2 -87 94 0
7 -87 95 0
6 -87 119 0
8 -87 130 0
2 -86 -127 0
2 -86 -109 0
1 -86 102 0
4 -86 105 0
10 -85 -139 0
6 -85 -120 0
3 -85 -89 0
8 -85 88 0
6 -85 92 0
7 -85 99 0
8 -85 113 0
4 -85 135 0
2 -84 111 0
6 -84 135 0
4 -83 -138 0
6 -83 -86 0
3 -83 117 0
10 -83 128 0
3 -83 129 0
8 -83 130 0
8 -82 -104 0
4 -82 120 0
5 -82 122 0
2 -81 92 0
3 -81 138 0
7 -80 -117 0
2 -80 -111 0
4 -80 -105 0
4 -80 -103 0
6 -80 -89 0
2 -80 88 0
6 -80 101 0
8 -80 113 0
2 -79 -137 0
9 -79 -121 0
7 -79 -120 0
7 -79 -102 0
1 -78 -100 0
6 -78 -99 0
3 -78 -79 0
8 -78 84 0
3 -78 140 0
6 -77 -117 0
8 -77 -107 0
9 -77 80 0
8 -77 109 0
4 -77 135 0
2 -76 -109 0
8 -76 -105 0
6 -76 -102 0
9 -76 115 0
6 -75 97 0
9 -74 -138 0
4 -74 -137 0
7 -74 -86 0
2 -74 81 0
10 -74 113 0
8 -74 125 0
5 -73 76 0
4 -73 93 0
4 -73 111 0
5 -72 -112 0
9 -72 -103 0
1 -72 -77 0
6 -72 74 0
8 -72 106 0
8 -72 108 0
3 -72 124 0
8 -72 137 0
3 -71 -135 0
5 -71 -107 0
5 -71 -98 0
5 -71 -72 0
9 -71 74 0
4 -71 75 0
4 -70 -105 0
8 -70 86 0
7 -70 104 0
5 -69 -101 0
6 -69 -83 0
4 -69 90 0
3 -68 -130 0
2 -68 -95 0
3 -68 85 0
6 -68 98 0
8 -67 -116 0
4 -67 -108 0
6 -67 -100 0
6 -67 -93 0
7 -67 85 0
9 -66 -103 0
9 -66 73 0
3 -66 139 0
8 -65 -87 0
9 -65 88 0
8 -65 113 0
6 -65 125 0
6 -65 136 0
1 -64 -134 0
3 -64 -120 0
8 -64 -84 0
5 -64 88 0
8 -64 93 0
4 -64 95 0
4 -64 101 0
2 -64 132 0
6 -63 -133 0
2 -63 -124 0
8 -63 -81 0
1 -63 -71 0
7 -63 80 0
2 -63 104 0
3 -63 129 0
8 -63 135 0
3 -62 -106 0
8 -62 -96 0
7 -62 -89 0
6 -62 67 0
4 -62 76 0
3 -62 91 0
4 -62 93 0
3 -62 137 0
1 -61 -92 0
5 -61 -77 0
1 -61 -70 0
9 -60 -133 0
3 -60 80 0
6 -60 111 0
5 -60 117 0
4 -59 70 0
8 -59 123 0
4 -59 138 0
7 -58 -129 0
6 -58 -106 0
6 -58 -102 0
2 -58 -81 0
7 -58 -59 0
3 -57 -103 0
2 -57 -85 0
5 -57 -62 0
3 -57 74 0
9 -57 80 0
5 -56 -106 0
5 -56 -93 0
7 -55 -136 0
8 -55 -117 0
4 -55 -90 0
4 -55 -64 0
4 -55 -61 0
7 -55 74 0
6 -55 123 0
6 -55 124 0
9 -55 136 0
6 -54 -91 0
2 -54 -62 0
9 -54 -61 0
5 -54 65 0
4 -54 74 0
5 -54 107 0
10 -54 125 0
7 -53 -134 0
3 -53 -107 0
3 -53 -94 0
4 -53 -64 0
8 -53 -59 0
9 -53 61 0
4 -53 62 0
5 -53 78 0
2 -53 93 0
6 -53 135 0
9 -53 140 0
4 -52 -128 0
5 -52 -126 0
4 -52 -112 0
8 -52 -62 0
2 -52 61 0
2 -52 72 0
2 -52 80 0
4 -52 94 0
5 -52 109 0
8 -52 125 0
9 -52 126 0
1 -51 -135 0
7 -51 -129 0
5 -51 -124 0
2 -51 -122 0
6 -51 52 0
9 -51 76 0
5 -51 123 0
1 -51 134 0
9 -50 -58 0
2 -50 65 0
3 -50 75 0
2 -50 79 0
5 -50 85 0
1 -50 115 0
10 -50 116 0
8 -50 129 0
5 -50 138 0
2 -49 -89 0
4 -49 75 0
4 -48 -138 0
4 -48 -131 0
7 -48 -116 0
7 -48 -103 0
2 -48 -97 0
8 -48 55 0
8 -48 57 0
3 -48 59 0
2 -48 66 0
2 -48 91 0
10 -47 -136 0
1 -47 53 0
2 -47 63 0
7 -47 79 0
5 -46 -131 0
3 -46 -128 0
3 -46 -113 0
5 -46 -112 0
7 -46 -110 0
3 -46 -98 0
3 -46 -60 0
8 -46 -58 0
5 -46 48 0
4 -46 121 0
2 -45 -115 0
5 -45 -82 0
4 -45 -81 0
9 -45 -61 0
10 -45 118 0
5 -44 -123 0
3 -44 -116 0
4 -44 -78 0
8 -44 -50 0
10 -44 55 0
10 -44 63 0
9 -44 79 0
8 -44 94 0
8 -44 98 0
3 -44 111 0
9 -43 -124 0
9 -43 -102 0
2 -43 -68 0
10 -43 72 0
2 -43 81 0
8 -43 107 0
5 -43 111 0
4 -42 -122 0
10 -42 -117 0
9 -42 63 0
1 -42 73 0
3 -42 81 0
2 -41 -99 0
8 -41 -78 0
7 -41 -75 0
6 -41 55 0
9 -41 97 0
2 -40 -135 0
9 -40 -81 0
9 -40 -56 0
2 -40 72 0
3 -40 77 0
2 -40 116 0
5 -39 -118 0
1 -39 -74 0
2 -39 -49 0
5 -39 51 0
10 -39 62 0
9 -39 95 0
2 -39 104 0
2 -39 107 0
8 -39 120 0
1 -39 125 0
4 -38 -115 0
8 -38 -108 0
2 -38 -81 0
2 -38 -67 0
3 -38 45 0
5 -38 51 0
2 -38 57 0
1 -38 76 0
5 -38 108 0
3 -37 -136 0
3 -37 -115 0
3 -37 -100 0
9 -37 -84 0
7 -37 -47 0
2 -37 45 0
10 -37 81 0
6 -36 -137 0
10 -36 -81 0
1 -36 -80 0
8 -35 -123 0
2 -35 -119 0
5 -35 -69 0
9 -35 -59 0
3 -35 51 0
9 -35 54 0
8 -34 -122 0
1 -34 -105 0
10 -34 60 0
10 -34 86 0
8 -34 102 0
1 -33 -132 0
3 -33 -97 0
6 -33 -73 0
2 -33 -69 0
4 -33 -53 0
8 -33 -43 0
5 -33 51 0
5 -33 67 0
8 -33 75 0
9 -33 91 0
7 -33 95 0
10 -32 -138 0
2 -32 -81 0
5 -32 -59 0
7 -32 -36 0
3 -32 54 0
5 -32 107 0
3 -32 113 0
2 -31 -42 0
6 -31 61 0
1 -31 98 0
3 -31 138 0
10 -30 -90 0
9 -30 -89 0
5 -30 -74 0
8 -30 -63 0
7 -30 -57 0
5 -30 34 0
8 -30 40 0
7 -30 51 0
4 -30 69 0
8 -30 107 0
9 -30 113 0
9 -29 -134 0
9 -29 -122 0
3 -29 -109 0
7 -29 -107 0
4 -29 -60 0
7 -29 -53 0
5 -29 -48 0
3 -29 53 0
4 -29 68 0
5 -29 134 0
4 -28 -124 0
8 -28 -107 0
2 -28 -82 0
6 -28 48 0
3 -28 74 0
4 -28 137 0
7 -27 -117 0
8 -27 -66 0
4 -27 -57 0
9 -26 -131 0
8 -26 -119 0
3 -26 -89 0
4 -26 -63 0
6 -26 55 0
9 -26 75 0
8 -26 80 0
4 -26 82 0
6 -26 94 0
2 -26 101 0
2 -26 117 0
5 -26 125 0
1 -25 -102 0
1 -25 -101 0
7 -25 -96 0
7 -25 -72 0
4 -25 -68 0
4 -25 -61 0
2 -25 -58 0
7 -25 -50 0
7 -25 -42 0
5 -25 28 0
10 -25 31 0
5 -25 46 0
6 -25 83 0
6 -25 84 0
8 -25 99 0
9 -24 -98 0
3 -24 -28 0
6 -24 46 0
3 -24 94 0
2 -24 98 0
3 -24 120 0
5 -23 -110 0
5 -23 -63 0
8 -23 56 0
4 -23 107 0
4 -22 -133 0
2 -22 -109 0
9 -22 -103 0
5 -22 -98 0
4 -22 -78 0
4 -22 -31 0
5 -22 -24 0
4 -22 37 0
10 -21 -123 0
2 -21 -119 0
7 -21 -35 0
4 -21 24 0
3 -21 31 0
4 -21 91 0
1 -21 122 0
7 -20 -117 0
4 -20 -40 0
5 -20 37 0
3 -20 56 0
9 -20 73 0
3 -19 -139 0
2 -19 -110 0
2 -19 -92 0
8 -19 -90 0
4 -19 -63 0
3 -19 -36 0
10 -19 27 0
7 -19 45 0
7 -19 74 0
8 -19 99 0
1 -19 126 0
10 -18 -140 0
10 -18 -109 0
9 -18 -59 0
5 -18 -51 0
3 -18 -49 0
2 -18 26 0
9 -18 32 0
6 -18 55 0
2 -18 99 0
1 -18 108 0
4 -17 -123 0
5 -17 -94 0
3 -17 -42 0
7 -17 75 0
5 -17 116 0
9 -17 118 0
10 -16 -137 0
10 -16 -126 0
2 -16 -104 0
9 -16 -92 0
2 -16 -36 0
3 -16 27 0
9 -16 44 0
9 -16 131 0
6 -15 -95 0
2 -15 -67 0
9 -15 -55 0
3 -15 -54 0
8 -15 18 0
7 -15 89 0
3 -15 116 0
8 -15 120 0
7 -15 133 0
2 -14 -135 0
3 -14 -116 0
9 -14 -114 0
3 -14 -112 0
3 -14 -58 0
6 -14 -21 0
5 -14 15 0
3 -14 44 0
8 -14 93 0
9 -14 95 0
5 -13 -138 0
5 -13 -109 0
4 -13 -48 0
4 -13 -42 0
5 -13 -31 0
4 -13 -27 0
5 -13 -18 0
3 -13 31 0
5 -13 48 0
6 -13 75 0
3 -13 90 0
4 -13 97 0
2 -13 122 0
4 -12 -126 0
3 -12 -119 0
4 -12 -65 0
2 -12 -57 0
10 -12 -41 0
7 -12 64 0
9 -12 67 0
7 -12 112 0
8 -12 114 0
2 -11 -105 0
6 -11 -99 0
1 -11 -97 0
3 -11 -50 0
2 -11 -32 0
5 -11 26 0
5 -11 59 0
9 -11 75 0
4 -11 103 0
9 -11 129 0
4 -10 -120 0
7 -10 -108 0
3 -10 -78 0
8 -10 -51 0
9 -10 -43 0
6 -10 -33 0
1 -10 20 0
4 -10 25 0
3 -10 26 0
3 -10 29 0
8 -10 67 0
4 -10 98 0
5 -10 104 0
10 -9 -81 0
7 -9 -56 0
6 -9 -40 0
9 -9 -37 0
4 -9 -32 0
5 -9 -23 0
6 -9 -20 0
2 -9 15 0
6 -9 56 0
2 -9 61 0
2 -9 63 0
8 -9 93 0
3 -9 116 0
6 -8 -132 0
4 -8 -89 0
2 -8 -74 0
9 -8 -53 0
3 -8 -29 0
5 -8 -20 0
6 -8 18 0
4 -8 37 0
2 -8 54 0
5 -8 95 0
9 -8 128 0
3 -8 135 0
9 -7 -136 0
2 -7 -66 0
4 -7 -58 0
6 -7 -47 0
5 -7 10 0
9 -7 24 0
6 -7 25 0
2 -7 79 0
5 -7 95 0
5 -7 123 0
5 -6 -139 0
9 -6 -132 0
1 -6 -59 0
5 -6 -51 0
5 -6 -47 0
3 -6 -42 0
6 -6 -20 0
3 -6 10 0
4 -6 11 0
3 -6 69 0
5 -6 87 0
5 -6 112 0
1 -6 118 0
7 -5 -140 0
9 -5 -128 0
6 -5 -75 0
1 -5 -63 0
1 -5 -15 0
1 -5 16 0
9 -5 31 0
3 -5 65 0
9 -5 66 0
1 -5 76 0
6 -5 114 0
5 -5 124 0
5 -5 126 0
5 -4 -85 0
10 -4 -81 0
6 -4 -43 0
9 -4 -31 0
5 -4 -21 0
9 -4 41 0
8 -4 43 0
6 -4 72 0
4 -4 89 0
3 -4 111 0
7 -4 114 0
10 -4 117 0
4 -3 -131 0
2 -3 -101 0
3 -3 -96 0
9 -3 -86 0
6 -3 -15 0
3 -3 15 0
6 -3 25 0
5 -3 31 0
8 -3 50 0
6 -3 57 0
5 -3 61 0
9 -3 85 0
5 -3 107 0
7 -3 113 0
7 -3 127 0
6 -2 -134 0
4 -2 -132 0
2 -2 -80 0
10 -2 -65 0
8 -2 -44 0
2 -2 -35 0
5 -2 -23 0
7 -2 -21 0
7 -2 13 0
4 -2 27 0
5 -2 64 0
2 -2 72 0
8 -2 100 0
7 -1 -131 0
9 -1 -120 0
8 -1 -55 0
1 -1 -47 0
10 -1 -29 0
9 -1 -6 0
9 -1 52 0
6 -1 58 0
2 1 -138 0
5 1 -107 0
9 1 -83 0
10 1 -64 0
10 1 19 0
4 1 23 0
8 1 32 0
5 1 46 0
1 1 51 0
6 1 99 0
10 1 132 0
4 1 134 0
7 2 -106 0
9 2 -63 0
2 2 -15 0
8 2 26 0
4 2 31 0
8 2 59 0
5 2 75 0
8 2 109 0
3 2 115 0
6 3 -126 0
6 3 -91 0
9 3 -87 0
5 3 -61 0
4 3 -51 0
10 3 -45 0
5 3 -9 0
3 3 11 0
9 3 40 0
9 3 55 0
5 4 -126 0
4 4 -121 0
9 4 -100 0
4 4 -67 0
3 4 -46 0
3 4 -31 0
2 4 34 0
7 5 -112 0
3 5 -111 0
7 5 -110 0
7 5 -99 0
6 5 -73 0
4 5 -30 0
6 5 -9 0
7 5 12 0
2 5 19 0
9 5 20 0
5 5 24 0
6 5 39 0
7 5 40 0
8 5 125 0
2 5 140 0
3 6 -56 0
7 6 -54 0
7 6 -24 0
6 6 -22 0
7 6 -11 0
2 6 9 0
8 6 37 0
6 6 66 0
10 6 81 0
2 6 94 0
8 6 102 0
9 6 129 0
5 6 134 0
1 7 -130 0
2 7 -109 0
7 7 -91 0
8 7 -87 0
4 7 -82 0
4 7 -10 0
4 7 9 0
9 7 52 0
7 7 120 0
9 8 -109 0
7 8 -100 0
8 8 -86 0
8 8 -22 0
2 8 72 0
4 8 123 0
5 9 -126 0
9 9 -114 0
5 9 -107 0
7 9 -90 0
6 9 -64 0
2 9 -27 0
2 9 12 0
3 9 78 0
2 9 92 0
9 9 103 0
7 9 110 0
2 9 118 0
1 9 128 0
6 10 -70 0
10 10 -33 0
6 10 89 0
6 10 111 0
2 10 134 0
2 11 -119 0
4 11 -115 0
5 11 -114 0
5 11 -81 0
7 11 -55 0
4 11 -51 0
2 11 22 0
6 11 67 0
10 12 -118 0
8 12 -70 0
4 12 -63 0
2 12 -52 0
2 12 -42 0
8 12 39 0
10 12 50 0
6 12 52 0
5 12 56 0
6 12 83 0
7 12 118 0
6 13 -132 0
8 13 -131 0
8 13 -94 0
6 13 -93 0
5 13 -48 0
10 13 -40 0
6 13 -32 0
10 13 32 0
9 13 63 0
2 13 85 0
6 13 89 0
10 13 134 0
3 13 135 0
8 13 136 0
5 14 -140 0
7 14 -135 0
5 14 -60 0
7 14 -35 0
8 14 49 0
10 14 52 0
7 14 56 0
6 14 140 0
4 15 -113 0
8 15 -97 0
7 15 -90 0
2 15 -88 0
7 15 -71 0
3 15 -27 0
5 15 58 0
3 15 66 0
9 15 76 0
2 15 91 0
10 15 92 0
7 15 107 0
6 15 119 0
5 15 120 0
7 15 127 0
2 16 -119 0
4 16 -79 0
6 16 -77 0
3 16 -74 0
9 16 -42 0
6 16 81 0
5 16 82 0
7 16 89 0
10 16 100 0
3 16 105 0
2 16 133 0
7 17 -137 0
10 17 -121 0
2 17 -42 0
5 17 23 0
6 17 45 0
5 17 70 0
2 17 73 0
3 17 79 0
5 17 101 0
9 18 -124 0
6 18 -94 0
10 18 -84 0
2 18 -79 0
5 18 -78 0
1 18 -44 0
2 18 32 0
2 18 53 0
7 18 69 0
6 18 106 0
8 18 123 0
8 18 125 0
9 19 -103 0
5 19 -100 0
1 19 -99 0
8 19 -67 0
1 19 -36 0
5 19 -34 0
5 19 -32 0
1 19 42 0
7 19 69 0
7 19 86 0
8 19 90 0
7 19 93 0
8 20 -130 0
2 20 -92 0
2 20 32 0
2 20 54 0
3 20 82 0
5 20 85 0
6 20 99 0
2 20 104 0
9 21 -91 0
6 21 -85 0
3 21 -84 0
4 21 -71 0
6 21 36 0
4 21 76 0
5 21 77 0
3 22 -73 0
9 22 -64 0
4 22 -58 0
1 22 -42 0
8 22 -39 0
7 22 -38 0
1 22 26 0
6 22 102 0
7 22 124 0
6 22 139 0
1 23 -130 0
8 23 -117 0
3 23 -110 0
7 23 -103 0
5 23 -92 0
8 23 -79 0
4 23 -69 0
6 23 -54 0
10 23 -44 0
6 23 90 0
9 23 100 0
5 23 105 0
2 23 130 0
1 24 -111 0
4 24 -106 0
7 24 -71 0
3 24 -53 0
7 24 -50 0
3 24 -48 0
6 24 -41 0
2 24 64 0
5 24 65 0
5 24 107 0
4 24 135 0
5 25 -133 0
2 25 -104 0
2 25 -33 0
5 25 -32 0
7 25 62 0
8 25 134 0
1 26 -128 0
7 26 -114 0
6 26 -113 0
3 26 -112 0
4 26 -106 0
10 26 -88 0
2 26 -43 0
7 26 29 0
6 26 54 0
2 26 108 0
3 27 -138 0
5 27 -117 0
5 27 -114 0
4 27 -81 0
5 27 -70 0
8 27 -68 0
10 27 -63 0
7 27 -54 0
4 27 -50 0
3 27 97 0
3 27 116 0
5 27 132 0
6 28 -138 0
7 28 -94 0
8 28 -89 0
1 28 36 0
8 28 61 0
9 28 79 0
6 28 83 0
5 28 96 0
7 28 103 0
6 28 106 0
2 28 111 0
2 29 -124 0
8 29 -63 0
5 29 -61 0
2 29 -34 0
9 29 52 0
2 29 64 0
7 29 68 0
9 29 110 0
4 29 131 0
2 30 -118 0
4 30 -104 0
7 30 -88 0
6 30 -85 0
2 30 -39 0
7 30 95 0
3 30 122 0
5 31 -102 0
8 31 -99 0
5 31 -78 0
9 31 -72 0
5 31 -60 0
2 31 107 0
8 31 122 0
5 31 134 0
10 32 -100 0
6 32 -99 0
1 32 -71 0
5 32 -55 0
3 32 34 0
6 32 45 0
6 32 80 0
5 32 124 0
4 32 127 0
1 33 -128 0
6 33 -103 0
3 33 75 0
3 33 89 0
3 34 -138 0
2 34 -121 0
6 34 -80 0
4 34 -70 0
5 34 -59 0
3 34 -51 0
8 34 47 0
6 34 68 0
9 34 70 0
10 34 87 0
2 34 94 0
7 35 -90 0
5 35 -73 0
10 35 -59 0
2 35 47 0
6 35 55 0
7 35 81 0
6 36 -135 0
6 36 -131 0
4 36 -127 0
6 36 -97 0
10 36 42 0
6 36 60 0
2 36 79 0
6 36 89 0
1 37 -100 0
5 37 -50 0
6 37 -43 0
6 37 65 0
7 37 84 0
8 37 134 0
8 37 135 0
8 38 -136 0
4 38 -129 0
1 38 -79 0
4 38 -77 0
6 38 77 0
8 38 93 0
9 38 94 0
5 39 -114 0
8 39 -98 0
10 39 -66 0
2 39 58 0
3 39 67 0
10 39 97 0
2 40 -94 0
8 40 -73 0
7 40 -56 0
7 40 -44 0
4 40 54 0
10 40 76 0
3 40 112 0
3 40 126 0
6 41 -111 0
4 41 -85 0
8 41 -84 0
6 41 -55 0
9 41 -48 0
4 41 62 0
2 42 -131 0
6 42 -104 0
3 42 -94 0
9 42 -93 0
4 42 73 0
6 42 89 0
9 42 135 0
7 43 -139 0
2 43 -131 0
7 43 -117 0
6 43 -98 0
5 43 -55 0
5 43 56 0
5 43 96 0
6 43 118 0
7 44 -132 0
5 44 -119 0
8 44 -107 0
4 44 -95 0
2 44 53 0
5 44 105 0
7 44 125 0
2 45 -128 0
7 45 -68 0
9 45 -50 0
7 45 55 0
2 45 113 0
7 45 123 0
3 45 131 0
9 46 -138 0
2 46 -133 0
4 46 -127 0
5 46 -124 0
3 46 -93 0
3 46 64 0
8 47 -126 0
8 47 -117 0
1 47 -110 0
5 47 -105 0
9 47 76 0
7 47 88 0
10 47 90 0
4 47 132 0
2 48 -135 0
5 48 -95 0
9 48 -60 0
7 48 67 0
9 48 78 0
7 49 -138 0
2 49 -129 0
10 49 -126 0
2 49 -125 0
8 49 -77 0
2 49 88 0
8 50 -110 0
7 50 -87 0
8 50 -71 0
9 50 -69 0
4 50 89 0
10 50 105 0
9 50 112 0
5 50 132 0
4 51 -132 0
4 51 -129 0
7 51 -123 0
6 51 -118 0
2 51 -98 0
5 51 -91 0
6 51 -83 0
6 51 -66 0
4 51 -56 0
3 51 88 0
6 51 119 0
7 51 133 0
4 51 140 0
1 52 -85 0
7 52 -82 0
1 52 -73 0
9 52 81 0
4 52 101 0
2 52 115 0
9 53 -114 0
5 53 -107 0
9 53 -102 0
10 53 -97 0
3 53 -92 0
6 53 -69 0
8 53 74 0
2 53 83 0
9 53 122 0
8 53 123 0
10 54 -125 0
4 54 -103 0
2 54 -90 0
4 54 -55 0
1 54 70 0
6 54 133 0
5 55 -85 0
6 55 -84 0
2 55 121 0
10 56 -133 0
9 56 -119 0
4 56 -92 0
6 56 -70 0
6 56 -59 0
7 56 -57 0
6 56 68 0
3 56 75 0
7 56 78 0
5 56 82 0
5 56 127 0
9 56 128 0
4 57 -114 0
9 57 -108 0
8 57 -79 0
4 57 -73 0
2 57 86 0
4 57 133 0
2 58 -90 0
3 58 -85 0
3 58 -83 0
8 58 -81 0
3 58 -80 0
6 58 108 0
9 58 113 0
5 58 126 0
7 59 -136 0
5 59 -133 0
9 59 -132 0
2 59 -115 0
7 59 -73 0
9 59 -72 0
1 59 91 0
10 59 121 0
5 60 -121 0
6 60 -92 0
7 60 -91 0
10 60 -87 0
8 60 -82 0
5 60 -71 0
5 60 65 0
3 60 78 0
3 60 106 0
8 61 -130 0
2 61 -129 0
10 61 -117 0
2 61 -115 0
3 61 -110 0
3 61 -100 0
3 61 -90 0
5 61 62 0
5 61 85 0
2 61 107 0
6 62 -118 0
2 62 -110 0
10 62 -104 0
1 62 -69 0
7 62 63 0
5 62 104 0
9 63 -137 0
9 63 -122 0
2 63 75 0
8 63 85 0
9 63 106 0
1 63 133 0
2 64 -136 0
5 64 -98 0
8 64 -70 0
2 64 123 0
3 64 134 0
2 65 66 0
6 65 84 0
6 65 94 0
4 65 136 0
4 66 -95 0
7 66 84 0
4 66 91 0
5 66 93 0
9 66 105 0
6 66 140 0
7 67 -120 0
4 67 -119 0
2 67 -117 0
8 67 -113 0
9 67 -93 0
2 67 -76 0
7 67 -70 0
10 67 76 0
9 67 90 0
2 67 101 0
9 67 112 0
8 67 114 0
2 67 127 0
7 68 -121 0
7 68 -99 0
3 68 -83 0
8 69 -79 0
2 69 78 0
10 69 104 0
9 69 107 0
5 70 -95 0
2 70 -85 0
5 70 -82 0
9 70 -78 0
5 70 101 0
8 70 116 0
6 70 127 0
8 71 -137 0
3 71 -90 0
5 71 128 0
4 72 -138 0
9 72 -134 0
8 72 -101 0
5 72 -80 0
6 72 88 0
7 72 91 0
6 72 105 0
3 72 110 0
7 72 125 0
5 73 -121 0
4 73 75 0
5 73 102 0
3 74 -128 0
6 74 -127 0
2 74 -123 0
9 74 -103 0
8 74 -92 0
9 74 -77 0
1 75 -126 0
7 75 -125 0
9 75 85 0
5 75 105 0
8 75 109 0
4 76 85 0
4 76 97 0
3 76 114 0
1 76 138 0
9 77 -117 0
10 77 -102 0
3 77 -89 0
4 77 -78 0
4 77 137 0
2 78 -84 0
2 78 122 0
7 79 -131 0
7 79 -116 0
8 79 89 0
4 79 96 0
10 79 128 0
5 79 138 0
8 80 -105 0
4 80 -83 0
9 80 84 0
10 80 98 0
9 81 -96 0
1 81 90 0
9 81 105 0
7 81 116 0
10 81 123 0
9 81 133 0
4 82 -139 0
9 82 97 0
4 83 -104 0
2 83 -84 0
2 83 111 0
7 83 115 0
4 84 -126 0
3 84 -111 0
6 84 117 0
4 85 -102 0
5 85 -95 0
10 85 93 0
7 86 -140 0
6 86 -120 0
2 86 -118 0
4 86 -92 0
3 86 115 0
9 87 -127 0
7 87 -116 0
2 87 -112 0
4 87 88 0
5 87 120 0
6 88 -123 0
3 88 95 0
5 88 113 0
4 89 -113 0
3 89 124 0
3 89 130 0
1 89 135 0
3 90 -121 0
2 90 95 0
5 90 111 0
1 90 112 0
5 91 -132 0
6 91 -121 0
3 91 -102 0
1 91 110 0
9 91 111 0
4 91 116 0
7 92 -123 0
3 92 -122 0
8 93 -136 0
6 93 -111 0
9 93 117 0
4 94 -119 0
7 94 -107 0
4 94 -100 0
5 94 107 0
6 95 -131 0
10 95 98 0
7 95 114 0
9 95 123 0
4 95 132 0
2 96 -104 0
1 96 118 0
8 97 -138 0
6 97 -109 0
3 97 112 0
10 97 114 0
6 97 130 0
5 98 107 0
2 98 114 0
10 98 117 0
6 98 120 0
5 98 128 0
5 99 -129 0
7 99 -110 0
6 99 -107 0
5 99 123 0
2 100 135 0
3 100 137 0
7 101 106 0
9 101 137 0
8 102 -140 0
6 102 -133 0
2 102 -106 0
5 103 -133 0
9 103 -119 0
6 104 -133 0
1 105 -140 0
8 105 -122 0
3 105 -119 0
9 105 109 0
3 105 115 0
4 106 -107 0
9 107 -116 0
10 107 -115 0
9 107 -112 0
3 107 114 0
10 108 119 0
5 109 -126 0
7 110 -121 0
2 111 -140 0
5 111 -117 0
3 111 137 0
6 113 -121 0
9 113 127 0
9 113 134 0
2 115 -137 0
4 116 -136 0
9 116 121 0
3 116 137 0
1 117 -133 0
8 117 -127 0
1 118 133 0
6 121 137 0
9 122 -128 0
6 122 125 0
5 123 124 0
5 124 -137 0
6 126 134 0
4 126 139 0
8 128 129 0
5 129 -140 0
6 130 -131 0
2 132 -133 0
